; benchmark generated from python API
(set-info :status unknown)
(declare-fun S_1 () Real)
(declare-fun S_2 () Real)
(declare-fun L_1 () Real)
(declare-fun A_2 () Real)
(declare-fun A_3 () Real)
(declare-fun L_3 () Real)
(declare-fun S_3 () Real)
(declare-fun A_1 () Real)
(declare-fun S_0 () Real)
(declare-fun L_0 () Real)
(declare-fun A_0 () Real)
(assert
 (let ((?x1342 (* (- 2.0) A_2)))
 (let ((?x1158 (* 2.0 A_1)))
 (let ((?x891 (* (- 2.0) L_1)))
 (let ((?x889 (* 2.0 L_3)))
 (let ((?x1956 (* (/ 2.0 3.0) L_0)))
 (let ((?x2090 (* (/ 2.0 3.0) S_3)))
 (let ((?x1955 (* (- (/ 2.0 3.0)) A_0)))
 (let (($x2133 (<= (+ ?x1955 ?x2090 ?x1956 ?x1158 ?x1342) 0.0)))
 (let (($x2108 (not $x2133)))
 (let (($x1447 (<= (+ (* (- 1.0) L_1) (* (- 1.0) S_1) A_0) 0.0)))
 (let ((?x1310 (* 2.0 A_2)))
 (let ((?x614 (* (- 1.0) A_1)))
 (let ((?x534 (* (- 1.0) A_3)))
 (let ((?x505 (* (- 1.0) L_3)))
 (let (($x1312 (<= (+ ?x505 ?x534 L_1 ?x614 ?x1310) 0.0)))
 (let (($x55562 (or $x1312 $x1447 $x2108 (<= (+ ?x1955 ?x2090 ?x1956 ?x889 ?x891 ?x1158 ?x1342) 0.0))))
 (let ((?x905 (* 3.0 A_1)))
 (let ((?x1150 (* (- 3.0) L_1)))
 (let ((?x1285 (* (- 3.0) A_3)))
 (let ((?x1291 (* 3.0 L_3)))
 (let ((?x897 (* 2.0 L_0)))
 (let ((?x1287 (* 2.0 S_3)))
 (let ((?x908 (* (- 2.0) A_0)))
 (let (($x1282 (<= (+ ?x908 ?x1287 ?x897 ?x1291 ?x1285 ?x1150 ?x905) 0.0)))
 (let (($x56009 (or (not $x1312) $x1282 (<= (+ L_3 ?x534 (* (- 1.0) L_1) ?x614 ?x1310) 0.0) $x1447)))
 (let ((?x3386 (* (/ 3.0 2.0) L_1)))
 (let ((?x4639 (* (- (/ 1.0 2.0)) L_0)))
 (let ((?x2519 (* (/ 1.0 2.0) A_0)))
 (let ((?x2515 (* (- (/ 3.0 2.0)) A_2)))
 (let (($x6818 (<= (+ ?x2515 ?x505 A_3 ?x2519 ?x4639 ?x3386) 0.0)))
 (let ((?x624 (* (- 1.0) A_2)))
 (let ((?x1933 (* (/ 2.0 3.0) A_3)))
 (let ((?x1945 (* (/ 1.0 3.0) L_3)))
 (let ((?x1591 (* (- (/ 1.0 3.0)) L_0)))
 (let ((?x1930 (* (/ 1.0 3.0) A_0)))
 (let ((?x516 (* (- 1.0) L_1)))
 (let (($x461 (= ?x505 ?x516)))
 (let (($x25676 (or $x461 $x1282 $x1447 (not (<= (+ L_1 A_1 S_3 ?x1342) 0.0)) $x6818)))
 (let (($x7800 (<= (+ (* (/ 4.0 3.0) A_0) ?x2090 ?x1591 (* (- 1.0) S_1) ?x624) 0.0)))
 (let (($x3390 (<= (+ (* (/ 1.0 2.0) L_1) (* (/ 1.0 2.0) A_1) (* (/ 1.0 2.0) S_3) ?x624) 0.0)))
 (let ((?x894 (* (- 1.0) S_1)))
 (let ((?x507 (* (- 1.0) L_0)))
 (let ((?x974 (* 2.0 A_0)))
 (let (($x5366 (<= (+ ?x974 ?x507 ?x894 ?x505 A_3 L_1 ?x614 ?x624) 0.0)))
 (let (($x3132 (not (<= (+ A_0 ?x1287 ?x507 (* 3.0 L_1) (* (- 3.0) A_2)) 0.0))))
 (let (($x2946 (<= (+ A_2 (* (- 1.0) A_0) L_0 L_3 ?x534 ?x891 A_1) 0.0)))
 (let ((?x8082 (* (- (/ 5.0 2.0)) L_1)))
 (let ((?x5428 (* (/ 1.0 2.0) L_0)))
 (let ((?x2546 (* (/ 3.0 2.0) A_2)))
 (let (($x56079 (or $x461 $x1282 $x1447 $x3390 (<= (+ ?x2546 ?x2519 ?x5428 ?x894 L_3 ?x534 ?x8082) 0.0))))
 (let (($x8433 (<= (+ ?x2546 (* (- (/ 1.0 2.0)) A_0) ?x5428 L_3 ?x534 (* (- (/ 3.0 2.0)) L_1)) 0.0)))
 (let (($x7138 (<= (+ ?x505 A_3 L_1 A_1 ?x1342) 0.0)))
 (let (($x1694 (<= (+ (* (- 1.0) A_0) L_0 S_2 ?x889 ?x891 ?x1158 ?x1342) 0.0)))
 (let (($x1301 (<= (+ (* (- 1.0) A_0) L_0 S_2 L_3 ?x534 ?x516 A_1) 0.0)))
 (let (($x5219 (<= (+ ?x2519 ?x5428 (* (/ 3.0 2.0) S_2) ?x894 L_3 ?x534 ?x516) 0.0)))
 (let (($x4800 (<= (+ (* (- 1.0) A_0) L_0 S_2 ?x1158 ?x1342) 0.0)))
 (let (($x3766 (<= (+ ?x614 (* 2.0 S_2) ?x894 L_3 ?x534 A_0) 0.0)))
 (let (($x10169 (<= (+ (* (- (/ 1.0 2.0)) A_0) (* (- (/ 3.0 2.0)) S_3) ?x4639 S_0 L_1 ?x505 A_3) 0.0)))
 (let (($x9927 (not (<= (+ ?x2519 (* (/ 1.0 2.0) S_3) ?x4639 L_1 ?x614) 0.0))))
 (let (($x2976 (<= (+ A_2 (* (- 1.0) S_3) ?x516) 0.0)))
 (let (($x2554 (<= (+ ?x507 L_1) 0.0)))
 (let (($x1300 (<= (+ A_0 (* (- 1.0) S_3) ?x507 ?x505 A_3 L_1 ?x614) 0.0)))
 (let (($x3924 (<= (+ ?x516 S_2 ?x894 L_3 A_0 ?x624) 0.0)))
 (let (($x1512 (<= (+ ?x624 S_2 ?x894 A_0) 0.0)))
 (let (($x1524 (not $x1512)))
 (let (($x3538 (<= (+ A_1 (* (- 2.0) S_3) S_0 ?x505 A_3 (* (- 1.0) A_0)) 0.0)))
 (let ((?x919 (* (- 3.0) A_1)))
 (let ((?x1202 (* 3.0 L_1)))
 (let ((?x883 (* (- 2.0) L_0)))
 (let (($x1318 (<= (+ ?x974 ?x883 ?x505 A_3 ?x1202 ?x919) 0.0)))
 (let (($x1474 (<= (+ A_2 (* (- 1.0) S_3) ?x505) 0.0)))
 (let (($x463 (= ?x516 ?x507)))
 (let (($x7749 (<= (+ ?x908 ?x897 (* 2.0 S_1) ?x1158 ?x1342) 0.0)))
 (let (($x7613 (not $x7749)))
 (let (($x1695 (<= (+ (* (- 1.0) A_0) L_0 S_1 L_3 ?x516 A_1 ?x624) 0.0)))
 (let (($x1306 (<= (+ ?x908 ?x897 (* 2.0 S_1) L_3 ?x534 ?x516 A_1) 0.0)))
 (let (($x1108 (<= (+ ?x516 A_1 (* (- 1.0) S_2)) 0.0)))
 (let ((?x1192 (* (- 2.0) A_1)))
 (let ((?x838 (* 2.0 L_1)))
 (let ((?x853 (* (- 2.0) L_3)))
 (let ((?x1124 (* (- 1.0) S_3)))
 (let (($x22453 (or $x463 (<= (+ L_1 ?x1124 ?x505 S_0 (* (- 1.0) A_0) A_2) 0.0) $x1474 (<= (+ A_0 ?x1124 ?x507 ?x853 ?x838 ?x1192 ?x1310) 0.0))))
 (let (($x7495 (<= (+ (* (- 1.0) A_0) ?x1124 L_0 (* 2.0 S_1)) 0.0)))
 (let ((?x909 (* 3.0 A_2)))
 (let ((?x5419 (* (/ 3.0 2.0) S_2)))
 (let (($x5814 (<= (+ (* (- (/ 3.0 2.0)) A_0) (* (/ 3.0 2.0) L_0) ?x5419 ?x1291 ?x1285 ?x1150 ?x909) 0.0)))
 (let (($x24958 (or $x1108 $x1301 (<= (+ A_0 ?x507 (* 2.0 A_3) (* (- 1.0) S_2) ?x1342) 0.0) $x5814)))
 (let (($x2749 (<= (+ A_0 S_3 ?x894 L_3 ?x534 ?x516) 0.0)))
 (let (($x1680 (<= (+ (* (- 1.0) A_0) S_3 L_0 ?x1291 ?x1150 ?x905 (* (- 3.0) A_2)) 0.0)))
 (let (($x21938 (or $x463 $x1108 (<= (+ A_0 ?x507 ?x505 A_3 ?x838 ?x614 ?x624) 0.0) (<= (+ ?x624 (* (- 1.0) S_2) ?x507 S_0 ?x505 A_3 ?x838) 0.0))))
 (let (($x21906 (or $x463 $x1108 (<= (+ A_0 ?x507 (* (- 1.0) S_2) ?x505 L_1 ?x614 A_2) 0.0) (<= (+ ?x507 (* (- 2.0) S_2) S_0 ?x505 L_1 A_2) 0.0))))
 (let (($x4831 (not $x4800)))
 (let (($x56716 (or $x1447 $x1694 (<= (+ L_1 ?x614 (* 2.0 S_2) L_3 ?x534) 0.0) $x4831)))
 (let (($x4889 (or $x1108 (<= (+ ?x624 S_3 A_0 (* (- 1.0) S_2) ?x507 L_1) 0.0))))
 (let (($x21262 (or $x463 (<= (+ A_0 ?x883 (* (- 3.0) S_2) S_0 ?x505 A_3 L_1) 0.0) $x1108 (<= (+ ?x974 ?x883 (* (- 2.0) S_2) ?x505 A_3 L_1 ?x614) 0.0))))
 (let ((?x3345 (* (/ 1.0 2.0) S_3)))
 (let ((?x3367 (* (/ 1.0 2.0) A_1)))
 (let ((?x3372 (* (- (/ 3.0 2.0)) L_1)))
 (let (($x29629 (or $x461 (<= (+ (* (/ 4.0 3.0) A_0) ?x2090 ?x1591 ?x894 L_3 ?x516 ?x624) 0.0) $x2749 (<= (+ ?x3372 ?x3367 ?x3345 ?x894 L_3 A_0 ?x624) 0.0))))
 (let (($x2128 (<= (+ (* (/ 4.0 3.0) A_0) ?x2090 (* (- (/ 4.0 3.0)) L_0) (* (- 2.0) S_2)) 0.0)))
 (and (<= ?x516 ?x507) (<= ?x505 ?x516) (or $x1108 $x2128) $x29629 (or (<= (+ ?x624 L_3 S_2) 0.0) $x1447 $x3766) $x21262 $x4889 (or $x461 $x1512 $x3766) $x56716 (or $x461 $x1512 $x5219) (or $x461 $x1108 $x1282 $x2133 $x2946) (or $x1108 $x1282 $x1680 $x2108) $x21906 (or $x461 $x1108 $x1306 $x2946 $x7749) $x21938 (or $x1108 $x1312 $x1695 $x7613) (or $x1108 $x1306 $x1695 $x7613) (or $x461 $x1680 $x2749) (or $x461 $x1108 $x1301 $x4800) $x24958 (or $x1474 $x7495) (or $x1108 $x2976 $x7495) (or $x1447 $x1694 $x4831 $x5219) $x22453 (or $x1447 $x1524 $x3924 $x5219) (or $x1108 $x1300 $x2554 $x2976 $x10169) (or $x461 $x1306 $x1474 $x7749) (or $x461 $x1301 $x1474 $x4800) (or $x1301 $x1474 $x1694 $x4831) (or $x463 $x1300 $x1474 $x9927 $x10169) (or $x1306 $x1474 $x1695 $x7613) (or $x463 $x1318 $x1474 $x3538 $x10169) (or $x1318 $x1447 $x2554 $x2976 $x3538 $x10169) (or $x1447 $x1524 $x3766 $x3924) (or $x1300 $x1447 $x2554 $x2976 $x9927 $x10169) (or $x461 $x1447 $x3766 $x4800) (or $x461 $x1447 $x4800 $x5219) (or $x461 $x1301 $x1447 $x1694) (or $x461 $x1447 $x2133 (not $x7138)) (or $x461 $x1282 $x1447 $x7138 $x8433) (or $x461 $x1447 $x2946 (<= (+ ?x1930 ?x2090 ?x1591 L_1 ?x624) 0.0)) $x56079 (or $x461 $x1282 $x2946 $x5366) (or $x461 $x3132 (not $x5366) $x7800) (or $x461 $x1282 $x1447 $x3390 (not $x7800)) $x25676 (or $x1282 $x1447 (<= (+ ?x1930 ?x1591 ?x1945 ?x1933 ?x624) 0.0) (not $x6818)) $x56009 $x55562 (<= (+ (* (- 1.0) A_0) L_0 S_0) 0.0) (<= (+ ?x894 S_0) 0.0) (<= (+ L_1 ?x614 S_1) 0.0) (<= (+ ?x1124 S_2) 0.0) (<= (+ S_3 L_3 ?x534) 0.0) (<= (+ ?x624 L_1 S_2) 0.0) (<= (+ (* (- 1.0) S_2) S_1) 0.0)))))))))))))))))))))))))))))))))))))))))))))))))))))))))))))))))))))))))))))))))))))))))))))))))))))))
(check-sat)
